set Z;
 set Y;
 param A{r in Z, m in Y} default 0, binary;
param B{r in Z} default 1, integer;
 var Route{m in Y}, binary;
 minimize cost: sum{m in Y} Route[m];
 subject to covers{r in Z}: sum{m in Y} A[r,m]*Route[m]>=B[r];
 solve; 
 printf {m in Y:  Route[m] == 1} "%s ", m > "C:/Users/Guilherme/Documents/GitHub/SirisOnRails/SirisOnRails/Results.txt";
 data;
set Z:= Z5 ;
set Y:= Y0 Y1 Y2 Y3 Y4 Y5 ;
param A := 

;
param B := 
[Z5] 0
;
end;
